
Gurobi 11.0.1 (win64) logging started Sat Mar 16 23:48:13 2024

Set parameter LogFile to value "res/logfile/exp-1-500-5-5log.txt"
Gurobi Optimizer version 11.0.1 build v11.0.1rc0 (win64 - Windows 11.0 (22621.2))

CPU model: AMD Ryzen Threadripper PRO 5975WX 32-Cores, instruction set [SSE2|AVX|AVX2]
Thread count: 32 physical cores, 64 logical processors, using up to 10 threads

Optimize a model with 550 rows, 990 columns and 1980 nonzeros
Model fingerprint: 0x6560c82b
Variable types: 740 continuous, 250 integer (250 binary)
Coefficient statistics:
  Matrix range     [1e+00, 9e+02]
  Objective range  [1e+00, 5e+03]
  Bounds range     [1e+00, 9e+02]
  RHS range        [1e+00, 3e+01]
Presolve time: 0.00s
Presolved: 550 rows, 990 columns, 1980 nonzeros
Variable types: 740 continuous, 250 integer (250 binary)
Found heuristic solution: objective 97798.000000

Root relaxation: objective 2.842705e+04, 621 iterations, 0.02 seconds (0.00 work units)

    Nodes    |    Current Node    |     Objective Bounds      |     Work
 Expl Unexpl |  Obj  Depth IntInf | Incumbent    BestBd   Gap | It/Node Time

     0     0 28427.0484    0  133 97798.0000 28427.0484  70.9%     -    0s
     0     0 41305.6465    0  105 97798.0000 41305.6465  57.8%     -    0s
     0     0 42091.7618    0  104 97798.0000 42091.7618  57.0%     -    0s
     0     0 42091.7618    0  104 97798.0000 42091.7618  57.0%     -    0s
     0     0 48123.2539    0  111 97798.0000 48123.2539  50.8%     -    0s
     0     0 48962.4808    0  110 97798.0000 48962.4808  49.9%     -    0s
     0     0 49093.2164    0  111 97798.0000 49093.2164  49.8%     -    0s
     0     0 49178.6112    0  111 97798.0000 49178.6112  49.7%     -    0s
     0     0 49178.7576    0  109 97798.0000 49178.7576  49.7%     -    0s
     0     0 51061.7374    0  110 97798.0000 51061.7374  47.8%     -    0s
     0     0 51501.7445    0  112 97798.0000 51501.7445  47.3%     -    0s
     0     0 51687.0207    0  114 97798.0000 51687.0207  47.1%     -    0s
     0     0 51713.7359    0  114 97798.0000 51713.7359  47.1%     -    0s
H    0     0                    96849.000000 51713.7359  46.6%     -    0s
     0     0 52825.5414    0  107 96849.0000 52825.5414  45.5%     -    0s
     0     0 53264.6594    0  115 96849.0000 53264.6594  45.0%     -    0s
     0     0 53355.4292    0  112 96849.0000 53355.4292  44.9%     -    0s
     0     0 53403.7043    0  113 96849.0000 53403.7043  44.9%     -    0s
H    0     0                    77960.404734 53411.2687  31.5%     -    0s
H    0     0                    77828.945410 53411.2687  31.4%     -    0s
     0     0 53411.2687    0  111 77828.9454 53411.2687  31.4%     -    0s
H    0     0                    77690.324178 53411.2687  31.3%     -    0s
H    0     0                    77297.638382 53411.2687  30.9%     -    0s
H    0     0                    77100.699299 53411.2687  30.7%     -    0s
H    0     0                    74929.000000 53411.2687  28.7%     -    0s
     0     0 54637.7493    0  114 74929.0000 54637.7493  27.1%     -    0s
     0     0 54908.5964    0  115 74929.0000 54908.5964  26.7%     -    0s
     0     0 54992.6533    0  116 74929.0000 54992.6533  26.6%     -    0s
     0     0 55003.1244    0  120 74929.0000 55003.1244  26.6%     -    0s
     0     0 55809.1437    0  118 74929.0000 55809.1437  25.5%     -    0s
     0     0 56122.8705    0  122 74929.0000 56122.8705  25.1%     -    0s
     0     0 56192.0932    0  123 74929.0000 56192.0932  25.0%     -    0s
     0     0 56218.1850    0  119 74929.0000 56218.1850  25.0%     -    0s
     0     0 56889.7325    0  113 74929.0000 56889.7325  24.1%     -    0s
     0     0 57004.3412    0  121 74929.0000 57004.3412  23.9%     -    0s
     0     0 57038.8483    0  126 74929.0000 57038.8483  23.9%     -    0s
     0     0 57575.5949    0  111 74929.0000 57575.5949  23.2%     -    0s
H    0     0                    74249.000000 57874.0511  22.1%     -    0s
     0     0 57874.0511    0  117 74249.0000 57874.0511  22.1%     -    0s
     0     0 57953.2302    0  116 74249.0000 57953.2302  21.9%     -    0s
     0     0 57961.6128    0  117 74249.0000 57961.6128  21.9%     -    0s
H    0     0                    74229.000000 57961.6128  21.9%     -    0s
H    0     0                    73282.000000 58301.7471  20.4%     -    0s
     0     0 58301.7471    0  113 73282.0000 58301.7471  20.4%     -    0s
     0     0 58450.7064    0  115 73282.0000 58450.7064  20.2%     -    0s
     0     0 58475.3193    0  114 73282.0000 58475.3193  20.2%     -    0s
     0     0 58887.5505    0  119 73282.0000 58887.5505  19.6%     -    0s
     0     0 59159.9498    0  120 73282.0000 59159.9498  19.3%     -    0s
     0     0 59226.1857    0  131 73282.0000 59226.1857  19.2%     -    0s
     0     0 59236.6415    0  129 73282.0000 59236.6415  19.2%     -    0s
     0     0 59527.0390    0  120 73282.0000 59527.0390  18.8%     -    0s
     0     0 59647.4483    0  122 73282.0000 59647.4483  18.6%     -    0s
     0     0 59700.0684    0  121 73282.0000 59700.0684  18.5%     -    0s
     0     0 59965.2985    0  120 73282.0000 59965.2985  18.2%     -    0s
     0     0 59972.4400    0  120 73282.0000 59972.4400  18.2%     -    0s
     0     2 59984.1669    0  120 73282.0000 59984.1669  18.1%     -    1s
H  209   221                    72884.000000 60184.1970  17.4%  15.0    1s
H 1016   550                    66790.000000 60356.3943  9.63%  11.8    2s
H 2171  1113                    66690.000000 62960.3474  5.59%  11.8    4s
  2324  1132 66229.5820   29  103 66690.0000 63918.5929  4.16%  15.1    5s
H 2386  1070                    66684.000000 63999.9205  4.03%  15.1    5s
H 2557  1051                    65887.000000 64275.8768  2.45%  15.4    5s

Cutting planes:
  Gomory: 19
  Implied bound: 17
  MIR: 234
  Flow cover: 363
  Flow path: 20
  Inf proof: 1

Explored 4674 nodes (81387 simplex iterations) in 6.14 seconds (4.72 work units)
Thread count was 10 (of 64 available processors)

Solution count 10: 65887 66684 66690 ... 77100.7

Optimal solution found (tolerance 1.00e-04)
Best objective 6.588700000000e+04, best bound 6.588700000000e+04, gap 0.0000%

User-callback calls 10133, time in user-callback 0.00 sec
